n=25;
m=20;
Ba=4.544933;
Bp=1.413333;
Ha=[[0.054000,0.054000,0.054000,0.054000,0.054000,0.054000,0.054000,0.054000,0.054000,0.054000,0.054000,0.054000,0.054000,0.054000,0.050000,0.050000,0.050000,0.050000,0.050000,0.050000,0.000000,0.000000,0.000000,0.000000,0.000000],[0.054000,0.054000,0.054000,0.054000,0.054000,0.054000,0.054000,0.560000,0.560000,0.560000,0.560000,0.560000,0.054000,0.054000,0.050000,0.050000,0.050000,0.050000,0.050000,0.050000,0.000000,0.000000,0.000000,0.000000,0.000000],[0.054000,0.054000,0.054000,0.054000,0.054000,0.054000,0.054000,0.560000,0.560000,0.560000,0.560000,0.560000,0.054000,0.054000,0.050000,0.050000,0.050000,0.050000,0.050000,0.050000,0.000000,0.000000,0.000000,0.000000,0.000000],[0.054000,0.054000,0.054000,0.054000,0.054000,0.054000,0.054000,0.560000,0.560000,0.560000,0.560000,0.560000,0.054000,0.054000,0.050000,0.050000,0.050000,0.050000,0.050000,0.050000,0.000000,0.000000,0.000000,0.000000,0.000000],[0.054000,0.054000,0.054000,0.054000,0.054000,0.054000,0.054000,0.054000,0.054000,0.054000,0.054000,0.054000,0.054000,0.054000,0.050000,0.050000,0.050000,0.050000,0.050000,0.050000,0.000000,0.000000,0.000000,0.000000,0.000000],[0.054000,0.054000,0.054000,0.054000,0.054000,0.054000,0.054000,0.054000,0.054000,0.054000,7.700000,7.700000,7.700000,7.700000,7.700000,0.050000,0.050000,0.050000,0.050000,0.050000,0.000000,0.000000,0.000000,0.000000,0.000000],[0.054000,0.054000,0.054000,0.054000,0.054000,0.054000,0.054000,0.054000,0.054000,0.054000,7.700000,7.700000,7.700000,7.700000,7.700000,0.050000,0.050000,0.050000,0.050000,0.050000,0.000000,0.000000,0.000000,0.000000,0.000000],[0.054000,0.054000,0.054000,0.054000,0.054000,0.054000,0.054000,0.054000,0.054000,0.054000,7.700000,7.700000,7.700000,7.700000,7.700000,0.050000,0.050000,0.050000,0.050000,0.050000,0.000000,0.000000,0.000000,0.000000,0.000000],[0.054000,0.054000,0.054000,0.054000,0.054000,0.054000,0.054000,0.054000,0.054000,0.054000,7.700000,7.700000,7.700000,7.700000,7.700000,0.050000,0.050000,0.050000,0.050000,0.050000,0.000000,0.000000,0.000000,0.000000,0.000000],[0.054000,0.054000,0.054000,0.054000,0.054000,0.054000,0.054000,0.054000,0.054000,0.054000,7.700000,7.700000,7.700000,7.700000,7.700000,0.050000,0.050000,0.050000,0.050000,0.050000,0.000000,0.000000,0.000000,0.000000,0.000000],[0.054000,0.054000,0.054000,0.054000,0.054000,0.054000,0.054000,0.054000,0.054000,0.054000,0.054000,0.054000,0.054000,0.054000,0.050000,0.050000,0.050000,0.050000,0.050000,0.050000,0.000000,0.000000,0.000000,0.000000,0.000000],[0.054000,0.054000,0.054000,0.054000,0.054000,0.054000,0.054000,0.054000,0.054000,0.054000,0.054000,0.054000,0.054000,0.054000,0.050000,0.050000,0.050000,0.050000,0.050000,0.050000,0.000000,0.000000,0.000000,0.000000,0.000000],[0.054000,0.054000,0.054000,0.054000,0.054000,0.054000,0.054000,0.054000,0.054000,0.054000,0.054000,0.054000,0.054000,0.054000,0.050000,0.050000,0.050000,0.050000,0.050000,0.050000,0.000000,0.000000,0.000000,0.000000,0.000000],[0.000000,0.000000,0.300000,0.300000,0.300000,0.300000,0.300000,0.300000,0.300000,0.300000,0.300000,0.300000,0.300000,0.300000,0.050000,0.050000,0.050000,0.050000,0.050000,0.050000,0.000000,0.000000,0.000000,0.000000,0.000000],[0.000000,0.000000,0.300000,0.300000,0.300000,0.300000,0.300000,0.300000,0.300000,0.300000,0.300000,0.300000,0.300000,0.300000,0.050000,0.050000,0.050000,0.050000,0.050000,0.050000,0.000000,0.000000,0.000000,0.000000,0.000000],[0.000000,0.000000,0.300000,0.300000,0.300000,0.300000,0.300000,0.300000,0.300000,0.300000,0.300000,0.300000,0.300000,0.300000,0.050000,0.050000,0.050000,0.050000,0.050000,0.050000,0.000000,0.000000,0.000000,0.000000,0.000000],[0.000000,0.000000,0.300000,0.300000,0.300000,0.300000,0.300000,0.300000,0.300000,0.300000,0.300000,0.300000,0.300000,0.300000,0.050000,0.050000,0.050000,0.050000,0.050000,0.050000,0.000000,0.000000,0.000000,0.000000,0.000000],[0.000000,0.000000,0.300000,0.300000,0.300000,0.300000,0.300000,0.300000,0.300000,0.300000,0.300000,0.300000,0.300000,0.300000,0.050000,0.050000,0.050000,0.050000,0.050000,0.050000,0.000000,0.000000,0.000000,0.000000,0.000000],[0.000000,0.000000,0.000000,0.000000,0.000000,0.000000,0.000000,0.000000,0.000000,0.000000,0.000000,0.000000,0.000000,0.000000,0.050000,0.050000,0.050000,0.050000,0.050000,0.050000,0.000000,0.000000,0.000000,0.000000,0.000000],[0.000000,0.000000,0.000000,0.000000,0.000000,0.000000,0.000000,0.000000,0.000000,0.000000,0.000000,0.000000,0.000000,0.000000,0.000000,0.000000,0.000000,0.000000,0.000000,0.000000,0.000000,0.000000,0.000000,0.000000,0.000000]];
Ca=[[0.720000,0.720000,0.720000,0.720000,0.720000,0.720000,0.720000,0.720000,0.720000,0.720000,0.720000,0.720000,0.720000,0.720000,0.750000,0.750000,0.750000,0.750000,0.750000,0.750000,0.000000,0.000000,0.000000,0.000000,0.000000],[0.720000,0.720000,0.720000,0.720000,0.720000,0.720000,0.720000,0.620000,0.620000,0.620000,0.620000,0.620000,0.720000,0.720000,0.750000,0.750000,0.750000,0.750000,0.750000,0.750000,0.000000,0.000000,0.000000,0.000000,0.000000],[0.720000,0.720000,0.720000,0.720000,0.720000,0.720000,0.720000,0.620000,0.620000,0.620000,0.620000,0.620000,0.720000,0.720000,0.750000,0.750000,0.750000,0.750000,0.750000,0.750000,0.000000,0.000000,0.000000,0.000000,0.000000],[0.720000,0.720000,0.720000,0.720000,0.720000,0.720000,0.720000,0.620000,0.620000,0.620000,0.620000,0.620000,0.720000,0.720000,0.750000,0.750000,0.750000,0.750000,0.750000,0.750000,0.000000,0.000000,0.000000,0.000000,0.000000],[0.720000,0.720000,0.720000,0.720000,0.720000,0.720000,0.720000,0.720000,0.720000,0.720000,0.720000,0.720000,0.720000,0.720000,0.750000,0.750000,0.750000,0.750000,0.750000,0.750000,0.000000,0.000000,0.000000,0.000000,0.000000],[0.720000,0.720000,0.720000,0.720000,0.720000,0.720000,0.720000,0.720000,0.720000,0.720000,0.180000,0.180000,0.180000,0.180000,0.180000,0.750000,0.750000,0.750000,0.750000,0.750000,0.000000,0.000000,0.000000,0.000000,0.000000],[0.720000,0.720000,0.720000,0.720000,0.720000,0.720000,0.720000,0.720000,0.720000,0.720000,0.180000,0.180000,0.180000,0.180000,0.180000,0.750000,0.750000,0.750000,0.750000,0.750000,0.000000,0.000000,0.000000,0.000000,0.000000],[0.720000,0.720000,0.720000,0.720000,0.720000,0.720000,0.720000,0.720000,0.720000,0.720000,0.180000,0.180000,0.180000,0.180000,0.180000,0.750000,0.750000,0.750000,0.750000,0.750000,0.000000,0.000000,0.000000,0.000000,0.000000],[0.720000,0.720000,0.720000,0.720000,0.720000,0.720000,0.720000,0.720000,0.720000,0.720000,0.180000,0.180000,0.180000,0.180000,0.180000,0.750000,0.750000,0.750000,0.750000,0.750000,0.000000,0.000000,0.000000,0.000000,0.000000],[0.720000,0.720000,0.720000,0.720000,0.720000,0.720000,0.720000,0.720000,0.720000,0.720000,0.180000,0.180000,0.180000,0.180000,0.180000,0.750000,0.750000,0.750000,0.750000,0.750000,0.000000,0.000000,0.000000,0.000000,0.000000],[0.720000,0.720000,0.720000,0.720000,0.720000,0.720000,0.720000,0.720000,0.720000,0.720000,0.720000,0.720000,0.720000,0.720000,0.750000,0.750000,0.750000,0.750000,0.750000,0.750000,0.000000,0.000000,0.000000,0.000000,0.000000],[0.720000,0.720000,0.720000,0.720000,0.720000,0.720000,0.720000,0.720000,0.720000,0.720000,0.720000,0.720000,0.720000,0.720000,0.750000,0.750000,0.750000,0.750000,0.750000,0.750000,0.000000,0.000000,0.000000,0.000000,0.000000],[0.720000,0.720000,0.720000,0.720000,0.720000,0.720000,0.720000,0.720000,0.720000,0.720000,0.720000,0.720000,0.720000,0.720000,0.750000,0.750000,0.750000,0.750000,0.750000,0.750000,0.000000,0.000000,0.000000,0.000000,0.000000],[1000.000000,1000.000000,0.670000,0.670000,0.670000,0.670000,0.670000,0.670000,0.670000,0.670000,0.670000,0.670000,0.670000,0.670000,0.750000,0.750000,0.750000,0.750000,0.750000,0.750000,0.000000,0.000000,0.000000,0.000000,0.000000],[1000.000000,1000.000000,0.670000,0.670000,0.670000,0.670000,0.670000,0.670000,0.670000,0.670000,0.670000,0.670000,0.670000,0.670000,0.750000,0.750000,0.750000,0.750000,0.750000,0.750000,0.000000,0.000000,0.000000,0.000000,0.000000],[1000.000000,1000.000000,0.670000,0.670000,0.670000,0.670000,0.670000,0.670000,0.670000,0.670000,0.670000,0.670000,0.670000,0.670000,0.750000,0.750000,0.750000,0.750000,0.750000,0.750000,0.000000,0.000000,0.000000,0.000000,0.000000],[1000.000000,1000.000000,0.670000,0.670000,0.670000,0.670000,0.670000,0.670000,0.670000,0.670000,0.670000,0.670000,0.670000,0.670000,0.750000,0.750000,0.750000,0.750000,0.750000,0.750000,0.000000,0.000000,0.000000,0.000000,0.000000],[1000.000000,1000.000000,0.670000,0.670000,0.670000,0.670000,0.670000,0.670000,0.670000,0.670000,0.670000,0.670000,0.670000,0.670000,0.750000,0.750000,0.750000,0.750000,0.750000,0.750000,0.000000,0.000000,0.000000,0.000000,0.000000],[1000.000000,1000.000000,1000.000000,1000.000000,1000.000000,1000.000000,1000.000000,1000.000000,1000.000000,1000.000000,1000.000000,1000.000000,1000.000000,1000.000000,0.750000,0.750000,0.750000,0.750000,0.750000,0.750000,0.000000,0.000000,0.000000,0.000000,0.000000],[1000.000000,1000.000000,1000.000000,1000.000000,1000.000000,1000.000000,1000.000000,1000.000000,1000.000000,1000.000000,1000.000000,1000.000000,1000.000000,1000.000000,1000.000000,1000.000000,1000.000000,1000.000000,1000.000000,1000.000000,0.000000,0.000000,0.000000,0.000000,0.000000]];
Hp=[[0.054000,0.054000,0.054000,0.054000,0.054000,0.054000,0.054000,0.054000,0.054000,0.054000,0.054000,0.054000,0.054000,0.054000,0.050000,0.050000,0.050000,0.050000,0.050000,0.050000,0.000000,0.000000,0.000000,0.000000,0.000000],[0.054000,0.054000,0.054000,0.054000,0.054000,0.054000,0.054000,0.560000,0.560000,0.560000,0.560000,0.560000,0.054000,0.054000,0.050000,0.050000,0.050000,0.050000,0.050000,0.050000,0.000000,0.000000,0.000000,0.000000,0.000000],[0.054000,0.054000,0.054000,0.054000,0.054000,0.054000,0.054000,0.560000,0.560000,0.560000,0.560000,0.560000,0.054000,0.054000,0.050000,0.050000,0.050000,0.050000,0.050000,0.050000,0.000000,0.000000,0.000000,0.000000,0.000000],[0.054000,0.054000,0.054000,0.054000,0.054000,0.054000,0.054000,0.560000,0.560000,0.560000,0.560000,0.560000,0.054000,0.054000,0.050000,0.050000,0.050000,0.050000,0.050000,0.050000,0.000000,0.000000,0.000000,0.000000,0.000000],[0.054000,0.054000,0.054000,0.054000,0.054000,0.054000,0.054000,0.054000,0.054000,0.054000,0.054000,0.054000,0.054000,0.054000,0.050000,0.050000,0.050000,0.050000,0.050000,0.050000,0.000000,0.000000,0.000000,0.000000,0.000000],[0.054000,0.054000,0.054000,0.054000,0.054000,0.054000,0.054000,0.054000,0.054000,0.054000,7.700000,7.700000,7.700000,7.700000,7.700000,0.050000,0.050000,0.050000,0.050000,0.050000,0.000000,0.000000,0.000000,0.000000,0.000000],[0.054000,0.054000,0.054000,0.054000,0.054000,0.054000,0.054000,0.054000,0.054000,0.054000,7.700000,7.700000,7.700000,7.700000,7.700000,0.050000,0.050000,0.050000,0.050000,0.050000,0.000000,0.000000,0.000000,0.000000,0.000000],[0.054000,0.054000,0.054000,0.054000,0.054000,0.054000,0.054000,0.054000,0.054000,0.054000,7.700000,7.700000,7.700000,7.700000,7.700000,0.050000,0.050000,0.050000,0.050000,0.050000,0.000000,0.000000,0.000000,0.000000,0.000000],[0.054000,0.054000,0.054000,0.054000,0.054000,0.054000,0.054000,0.054000,0.054000,0.054000,7.700000,7.700000,7.700000,7.700000,7.700000,0.050000,0.050000,0.050000,0.050000,0.050000,0.000000,0.000000,0.000000,0.000000,0.000000],[0.054000,0.054000,0.054000,0.054000,0.054000,0.054000,0.054000,0.054000,0.054000,0.054000,7.700000,7.700000,7.700000,7.700000,7.700000,0.050000,0.050000,0.050000,0.050000,0.050000,0.000000,0.000000,0.000000,0.000000,0.000000],[0.054000,0.054000,0.054000,0.054000,0.054000,0.054000,0.054000,0.054000,0.054000,0.054000,0.054000,0.054000,0.054000,0.054000,0.050000,0.050000,0.050000,0.050000,0.050000,0.050000,0.000000,0.000000,0.000000,0.000000,0.000000],[0.054000,0.054000,0.054000,0.054000,0.054000,0.054000,0.054000,0.054000,0.054000,0.054000,0.054000,0.054000,0.054000,0.054000,0.050000,0.050000,0.050000,0.050000,0.050000,0.050000,0.000000,0.000000,0.000000,0.000000,0.000000],[0.054000,0.054000,0.054000,0.054000,0.054000,0.054000,0.054000,0.054000,0.054000,0.054000,0.054000,0.054000,0.054000,0.054000,0.050000,0.050000,0.050000,0.050000,0.050000,0.050000,0.000000,0.000000,0.000000,0.000000,0.000000],[0.000000,0.000000,0.300000,0.300000,0.300000,0.300000,0.300000,0.300000,0.300000,0.300000,0.300000,0.300000,0.300000,0.300000,0.050000,0.050000,0.050000,0.050000,0.050000,0.050000,0.000000,0.000000,0.000000,0.000000,0.000000],[0.000000,0.000000,0.300000,0.300000,0.300000,0.300000,0.300000,0.300000,0.300000,0.300000,0.300000,0.300000,0.300000,0.300000,0.050000,0.050000,0.050000,0.050000,0.050000,0.050000,0.000000,0.000000,0.000000,0.000000,0.000000],[0.000000,0.000000,0.300000,0.300000,0.300000,0.300000,0.300000,0.300000,0.300000,0.300000,0.300000,0.300000,0.300000,0.300000,0.050000,0.050000,0.050000,0.050000,0.050000,0.050000,0.000000,0.000000,0.000000,0.000000,0.000000],[0.000000,0.000000,0.300000,0.300000,0.300000,0.300000,0.300000,0.300000,0.300000,0.300000,0.300000,0.300000,0.300000,0.300000,0.050000,0.050000,0.050000,0.050000,0.050000,0.050000,0.000000,0.000000,0.000000,0.000000,0.000000],[0.000000,0.000000,0.300000,0.300000,0.300000,0.300000,0.300000,0.300000,0.300000,0.300000,0.300000,0.300000,0.300000,0.300000,0.050000,0.050000,0.050000,0.050000,0.050000,0.050000,0.000000,0.000000,0.000000,0.000000,0.000000],[0.000000,0.000000,0.000000,0.000000,0.000000,0.000000,0.000000,0.000000,0.000000,0.000000,0.000000,0.000000,0.000000,0.000000,0.050000,0.050000,0.050000,0.050000,0.050000,0.050000,0.000000,0.000000,0.000000,0.000000,0.000000],[0.000000,0.000000,0.000000,0.000000,0.000000,0.000000,0.000000,0.000000,0.000000,0.000000,0.000000,0.000000,0.000000,0.000000,0.000000,0.000000,0.000000,0.000000,0.000000,0.000000,0.000000,0.000000,0.000000,0.000000,0.000000]];
Cp=[[0.720000,0.720000,0.720000,0.720000,0.720000,0.720000,0.720000,0.720000,0.720000,0.720000,0.720000,0.720000,0.720000,0.720000,0.750000,0.750000,0.750000,0.750000,0.750000,0.750000,0.000000,0.000000,0.000000,0.000000,0.000000],[0.720000,0.720000,0.720000,0.720000,0.720000,0.720000,0.720000,0.620000,0.620000,0.620000,0.620000,0.620000,0.720000,0.720000,0.750000,0.750000,0.750000,0.750000,0.750000,0.750000,0.000000,0.000000,0.000000,0.000000,0.000000],[0.720000,0.720000,0.720000,0.720000,0.720000,0.720000,0.720000,0.620000,0.620000,0.620000,0.620000,0.620000,0.720000,0.720000,0.750000,0.750000,0.750000,0.750000,0.750000,0.750000,0.000000,0.000000,0.000000,0.000000,0.000000],[0.720000,0.720000,0.720000,0.720000,0.720000,0.720000,0.720000,0.620000,0.620000,0.620000,0.620000,0.620000,0.720000,0.720000,0.750000,0.750000,0.750000,0.750000,0.750000,0.750000,0.000000,0.000000,0.000000,0.000000,0.000000],[0.720000,0.720000,0.720000,0.720000,0.720000,0.720000,0.720000,0.720000,0.720000,0.720000,0.720000,0.720000,0.720000,0.720000,0.750000,0.750000,0.750000,0.750000,0.750000,0.750000,0.000000,0.000000,0.000000,0.000000,0.000000],[0.720000,0.720000,0.720000,0.720000,0.720000,0.720000,0.720000,0.720000,0.720000,0.720000,0.180000,0.180000,0.180000,0.180000,0.180000,0.750000,0.750000,0.750000,0.750000,0.750000,0.000000,0.000000,0.000000,0.000000,0.000000],[0.720000,0.720000,0.720000,0.720000,0.720000,0.720000,0.720000,0.720000,0.720000,0.720000,0.180000,0.180000,0.180000,0.180000,0.180000,0.750000,0.750000,0.750000,0.750000,0.750000,0.000000,0.000000,0.000000,0.000000,0.000000],[0.720000,0.720000,0.720000,0.720000,0.720000,0.720000,0.720000,0.720000,0.720000,0.720000,0.180000,0.180000,0.180000,0.180000,0.180000,0.750000,0.750000,0.750000,0.750000,0.750000,0.000000,0.000000,0.000000,0.000000,0.000000],[0.720000,0.720000,0.720000,0.720000,0.720000,0.720000,0.720000,0.720000,0.720000,0.720000,0.180000,0.180000,0.180000,0.180000,0.180000,0.750000,0.750000,0.750000,0.750000,0.750000,0.000000,0.000000,0.000000,0.000000,0.000000],[0.720000,0.720000,0.720000,0.720000,0.720000,0.720000,0.720000,0.720000,0.720000,0.720000,0.180000,0.180000,0.180000,0.180000,0.180000,0.750000,0.750000,0.750000,0.750000,0.750000,0.000000,0.000000,0.000000,0.000000,0.000000],[0.720000,0.720000,0.720000,0.720000,0.720000,0.720000,0.720000,0.720000,0.720000,0.720000,0.720000,0.720000,0.720000,0.720000,0.750000,0.750000,0.750000,0.750000,0.750000,0.750000,0.000000,0.000000,0.000000,0.000000,0.000000],[0.720000,0.720000,0.720000,0.720000,0.720000,0.720000,0.720000,0.720000,0.720000,0.720000,0.720000,0.720000,0.720000,0.720000,0.750000,0.750000,0.750000,0.750000,0.750000,0.750000,0.000000,0.000000,0.000000,0.000000,0.000000],[0.720000,0.720000,0.720000,0.720000,0.720000,0.720000,0.720000,0.720000,0.720000,0.720000,0.720000,0.720000,0.720000,0.720000,0.750000,0.750000,0.750000,0.750000,0.750000,0.750000,0.000000,0.000000,0.000000,0.000000,0.000000],[1000.000000,1000.000000,0.670000,0.670000,0.670000,0.670000,0.670000,0.670000,0.670000,0.670000,0.670000,0.670000,0.670000,0.670000,0.750000,0.750000,0.750000,0.750000,0.750000,0.750000,0.000000,0.000000,0.000000,0.000000,0.000000],[1000.000000,1000.000000,0.670000,0.670000,0.670000,0.670000,0.670000,0.670000,0.670000,0.670000,0.670000,0.670000,0.670000,0.670000,0.750000,0.750000,0.750000,0.750000,0.750000,0.750000,0.000000,0.000000,0.000000,0.000000,0.000000],[1000.000000,1000.000000,0.670000,0.670000,0.670000,0.670000,0.670000,0.670000,0.670000,0.670000,0.670000,0.670000,0.670000,0.670000,0.750000,0.750000,0.750000,0.750000,0.750000,0.750000,0.000000,0.000000,0.000000,0.000000,0.000000],[1000.000000,1000.000000,0.670000,0.670000,0.670000,0.670000,0.670000,0.670000,0.670000,0.670000,0.670000,0.670000,0.670000,0.670000,0.750000,0.750000,0.750000,0.750000,0.750000,0.750000,0.000000,0.000000,0.000000,0.000000,0.000000],[1000.000000,1000.000000,0.670000,0.670000,0.670000,0.670000,0.670000,0.670000,0.670000,0.670000,0.670000,0.670000,0.670000,0.670000,0.750000,0.750000,0.750000,0.750000,0.750000,0.750000,0.000000,0.000000,0.000000,0.000000,0.000000],[1000.000000,1000.000000,1000.000000,1000.000000,1000.000000,1000.000000,1000.000000,1000.000000,1000.000000,1000.000000,1000.000000,1000.000000,1000.000000,1000.000000,0.750000,0.750000,0.750000,0.750000,0.750000,0.750000,0.000000,0.000000,0.000000,0.000000,0.000000],[1000.000000,1000.000000,1000.000000,1000.000000,1000.000000,1000.000000,1000.000000,1000.000000,1000.000000,1000.000000,1000.000000,1000.000000,1000.000000,1000.000000,1000.000000,1000.000000,1000.000000,1000.000000,1000.000000,1000.000000,0.000000,0.000000,0.000000,0.000000,0.000000]];
